seed= 2052018 ;
N= 75 ;
M= 3 ;
F= 3 ;
K= 4 ;
T= 30 ;

p=[ 2 2 2 2 2 2 2 2 2 2 2 2 2 2 2 2 2 2 2 2 2 2 2 2 2 4 4 4 4 4 4 4 4 4 4 4 4 4 4 4 4 4 4 4 4 4 4 4 4 4 4 4 4 4 4 4 4 4 4 4 4 4 4 4 4 4 4 4 4 4 4 4 4 4 4 ];
r=[ 0 0 0 0 0 0 0 0 0 0 0 0 0 0 0 0 0 0 0 0 0 0 0 0 0 0 0 0 0 0 0 0 0 0 0 0 0 0 0 0 0 0 0 0 0 0 0 0 0 0 0 0 0 0 0 0 0 0 0 0 0 0 0 0 0 0 0 0 0 0 0 0 0 0 0 ];
d=[ 18 30 19 13 21 22 28 22 12 12 28 13 12 26 24 15 14 29 28 26 13 23 22 18 11 13 24 31 13 10 25 13 26 26 20 10 1 16 7 11 16 0 22 8 29 6 6 27 1 29 2 6 24 9 26 10 2 14 31 16 5 22 8 3 9 15 16 20 26 10 21 21 10 29 26 ];
s=[ 1 1 1 1 1 1 1 1 1 1 1 1 1 1 1 1 1 1 1 1 1 1 1 1 1 1 1 1 1 1 1 1 1 1 1 1 1 1 1 1 1 1 1 1 1 1 1 1 1 1 1 1 1 1 1 1 1 1 1 1 1 1 1 1 1 1 1 1 1 1 1 1 1 1 1 ];
w=[ 5 4 5 2 4 5 5 1 2 2 3 5 1 5 5 1 1 4 5 5 5 5 2 2 4 2 3 2 1 1 1 5 3 1 2 3 4 1 3 3 4 1 5 1 3 2 3 4 2 1 1 2 3 1 3 4 2 1 5 2 1 1 4 2 5 2 5 2 2 1 1 2 4 2 5 ];
f=[ 1 1 1 1 1 1 1 1 1 1 1 1 1 1 1 1 1 1 1 1 1 1 1 1 1 2 2 2 2 2 2 2 2 2 2 2 2 2 2 2 2 2 2 2 2 2 2 2 2 2 3 3 3 3 3 3 3 3 3 3 3 3 3 3 3 3 3 3 3 3 3 3 3 3 3 ];

e1=[ 10 10 10 10 10 10 10 10 10 10 10 10 10 10 10 8 8 8 8 8 8 8 8 8 8 8 8 8 8 8 ];
e2=[ 10 10 10 10 10 10 10 10 10 10 9 9 9 9 9 8 8 8 8 8 8 8 8 8 8 9 9 9 9 9 ];